(set-logic QF_UF)
(declare-fun G101 () Bool)
(declare-fun G104 () Bool)
(declare-fun G107 () Bool)
(declare-fun G110 () Bool)
(declare-fun G113 () Bool)
(declare-fun G116 () Bool)
(declare-fun G119 () Bool)
(declare-fun G122 () Bool)
(declare-fun G125 () Bool)
(declare-fun G128 () Bool)
(declare-fun G131 () Bool)
(declare-fun G134 () Bool)
(declare-fun G137 () Bool)
(declare-fun G140 () Bool)
(declare-fun G143 () Bool)
(declare-fun G146 () Bool)
(declare-fun G210 () Bool)
(declare-fun G214 () Bool)
(declare-fun G217 () Bool)
(declare-fun G221 () Bool)
(declare-fun G224 () Bool)
(declare-fun G227 () Bool)
(declare-fun G234 () Bool)
(declare-fun G237 () Bool)
(declare-fun G469 () Bool)
(declare-fun G472 () Bool)
(declare-fun G475 () Bool)
(declare-fun G478 () Bool)
(declare-fun G898 () Bool)
(declare-fun G900 () Bool)
(declare-fun G902 () Bool)
(declare-fun G952 () Bool)
(declare-fun G953 () Bool)
(assert (let ((.def_0 (not G237))) (let ((.def_1 (not G902))) (let ((.def_2 (and .def_1 .def_0))) (let ((.def_3 (not .def_2))) (let ((.def_4 (and G214 .def_3))) (let ((.def_5 (not .def_4))) (let ((.def_6 (not G119))) (let ((.def_7 (and G116 .def_6))) (let ((.def_8 (not .def_7))) (let ((.def_9 (not G116))) (let ((.def_10 (and G119 .def_9))) (let ((.def_11 (not .def_10))) (let ((.def_12 (and .def_11 .def_8))) (let ((.def_13 (not .def_12))) (let ((.def_14 (and G113 .def_13))) (let ((.def_15 (not .def_14))) (let ((.def_16 (not G113))) (let ((.def_17 (and .def_16 .def_12))) (let ((.def_18 (not .def_17))) (let ((.def_19 (and .def_18 .def_15))) (let ((.def_20 (not G101))) (let ((.def_21 (not G107))) (let ((.def_22 (and .def_21 G104))) (let ((.def_23 (not .def_22))) (let ((.def_24 (not G104))) (let ((.def_25 (and G107 .def_24))) (let ((.def_26 (not .def_25))) (let ((.def_27 (and .def_26 .def_23))) (let ((.def_28 (and .def_27 .def_20))) (let ((.def_29 (not .def_28))) (let ((.def_30 (not .def_27))) (let ((.def_31 (and .def_30 G101))) (let ((.def_32 (not .def_31))) (let ((.def_33 (and .def_32 .def_29))) (let ((.def_34 (and .def_33 .def_19))) (let ((.def_35 (not .def_34))) (let ((.def_36 (not .def_33))) (let ((.def_37 (not .def_19))) (let ((.def_38 (and .def_37 .def_36))) (let ((.def_39 (not .def_38))) (let ((.def_40 (and .def_39 .def_35))) (let ((.def_41 (not G110))) (let ((.def_42 (and .def_41 G122))) (let ((.def_43 (not .def_42))) (let ((.def_44 (not G122))) (let ((.def_45 (and G110 .def_44))) (let ((.def_46 (not .def_45))) (let ((.def_47 (and .def_46 .def_43))) (let ((.def_48 (and .def_47 .def_40))) (let ((.def_49 (not .def_48))) (let ((.def_50 (not .def_40))) (let ((.def_51 (not .def_47))) (let ((.def_52 (and .def_51 .def_50))) (let ((.def_53 (not .def_52))) (let ((.def_54 (and .def_53 .def_49))) (let ((.def_55 (not G125))) (let ((.def_56 (not G143))) (let ((.def_57 (and .def_56 G146))) (let ((.def_58 (not .def_57))) (let ((.def_59 (not G146))) (let ((.def_60 (and .def_59 G143))) (let ((.def_61 (not .def_60))) (let ((.def_62 (and .def_61 .def_58))) (let ((.def_63 (not .def_62))) (let ((.def_64 (and G128 .def_63))) (let ((.def_65 (not .def_64))) (let ((.def_66 (not G128))) (let ((.def_67 (and .def_62 .def_66))) (let ((.def_68 (not .def_67))) (let ((.def_69 (and .def_68 .def_65))) (let ((.def_70 (and .def_69 .def_55))) (let ((.def_71 (not .def_70))) (let ((.def_72 (not .def_69))) (let ((.def_73 (and .def_72 G125))) (let ((.def_74 (not .def_73))) (let ((.def_75 (and .def_74 .def_71))) (let ((.def_76 (not G953))) (let ((.def_77 (and G224 .def_76))) (let ((.def_78 (and .def_77 .def_75))) (let ((.def_79 (not .def_78))) (let ((.def_80 (not .def_77))) (let ((.def_81 (not .def_75))) (let ((.def_82 (and .def_81 .def_80))) (let ((.def_83 (not .def_82))) (let ((.def_84 (and .def_83 .def_79))) (let ((.def_85 (and .def_84 .def_54))) (let ((.def_86 (not .def_85))) (let ((.def_87 (not .def_54))) (let ((.def_88 (not .def_84))) (let ((.def_89 (and .def_88 .def_87))) (let ((.def_90 (not .def_89))) (let ((.def_91 (and .def_90 .def_86))) (let ((.def_92 (and .def_91 .def_1))) (let ((.def_93 (not .def_92))) (let ((.def_94 (and .def_3 G210))) (let ((.def_95 (and .def_94 .def_93))) (let ((.def_96 (not .def_95))) (let ((.def_97 (not .def_94))) (let ((.def_98 (and .def_97 .def_92))) (let ((.def_99 (not .def_98))) (let ((.def_100 (and .def_99 .def_96))) (let ((.def_101 (not .def_100))) (let ((.def_102 (and .def_101 .def_5))) (let ((.def_103 (and G237 G234))) (let ((.def_104 (not .def_103))) (let ((.def_105 (and .def_104 .def_76 G952))) (let ((.def_106 (not .def_105))) (let ((.def_107 (not G900))) (let ((.def_108 (and .def_104 G953 G902 .def_107))) (let ((.def_109 (not .def_108))) (let ((.def_110 (and .def_109 .def_106))) (let ((.def_111 (not .def_110))) (let ((.def_112 (and .def_55 G140))) (let ((.def_113 (not .def_112))) (let ((.def_114 (not G140))) (let ((.def_115 (and .def_114 G125))) (let ((.def_116 (not .def_115))) (let ((.def_117 (and .def_116 .def_113))) (let ((.def_118 (and .def_59 .def_117))) (let ((.def_119 (not .def_118))) (let ((.def_120 (not .def_117))) (let ((.def_121 (and G146 .def_120))) (let ((.def_122 (not .def_121))) (let ((.def_123 (and .def_122 .def_119))) (let ((.def_124 (not G131))) (let ((.def_125 (and .def_76 G214 .def_0))) (let ((.def_126 (and G143 .def_125))) (let ((.def_127 (not .def_126))) (let ((.def_128 (not .def_125))) (let ((.def_129 (and .def_56 .def_128))) (let ((.def_130 (not .def_129))) (let ((.def_131 (and .def_130 .def_127))) (let ((.def_132 (and .def_131 .def_124))) (let ((.def_133 (not .def_132))) (let ((.def_134 (not .def_131))) (let ((.def_135 (and .def_134 G131))) (let ((.def_136 (not .def_135))) (let ((.def_137 (and .def_136 .def_133))) (let ((.def_138 (not .def_137))) (let ((.def_139 (and .def_138 .def_123))) (let ((.def_140 (not .def_139))) (let ((.def_141 (not .def_123))) (let ((.def_142 (and .def_141 .def_137))) (let ((.def_143 (not .def_142))) (let ((.def_144 (and .def_143 .def_140))) (let ((.def_145 (and G122 .def_16))) (let ((.def_146 (not .def_145))) (let ((.def_147 (and .def_44 G113))) (let ((.def_148 (not .def_147))) (let ((.def_149 (and .def_148 .def_146))) (let ((.def_150 (and .def_149 .def_24))) (let ((.def_151 (not .def_150))) (let ((.def_152 (not .def_149))) (let ((.def_153 (and G104 .def_152))) (let ((.def_154 (not .def_153))) (let ((.def_155 (and .def_154 .def_151))) (let ((.def_156 (not .def_155))) (let ((.def_157 (and .def_156 .def_144))) (let ((.def_158 (not .def_157))) (let ((.def_159 (not .def_144))) (let ((.def_160 (and .def_155 .def_159))) (let ((.def_161 (not .def_160))) (let ((.def_162 (and .def_161 .def_158))) (let ((.def_163 (not .def_162))) (let ((.def_164 (and .def_1 .def_163))) (let ((.def_165 (not G475))) (let ((.def_166 (and .def_165 .def_164))) (let ((.def_167 (not .def_166))) (let ((.def_168 (not .def_164))) (let ((.def_169 (and .def_168 G475))) (let ((.def_170 (not .def_169))) (let ((.def_171 (and .def_170 .def_167))) (let ((.def_172 (not .def_171))) (let ((.def_173 (and .def_76 G234 G217))) (let ((.def_174 (not .def_173))) (let ((.def_175 (and G116 .def_44))) (let ((.def_176 (not .def_175))) (let ((.def_177 (and .def_9 G122))) (let ((.def_178 (not .def_177))) (let ((.def_179 (and .def_178 .def_176))) (let ((.def_180 (not .def_179))) (let ((.def_181 (and .def_180 G107))) (let ((.def_182 (not .def_181))) (let ((.def_183 (and .def_179 .def_21))) (let ((.def_184 (not .def_183))) (let ((.def_185 (and .def_184 .def_182))) (let ((.def_186 (not G134))) (let ((.def_187 (and .def_66 G143))) (let ((.def_188 (not .def_187))) (let ((.def_189 (and .def_56 G128))) (let ((.def_190 (not .def_189))) (let ((.def_191 (and .def_190 .def_188))) (let ((.def_192 (and .def_191 .def_186))) (let ((.def_193 (not .def_192))) (let ((.def_194 (not .def_191))) (let ((.def_195 (and G134 .def_194))) (let ((.def_196 (not .def_195))) (let ((.def_197 (and .def_196 .def_193))) (let ((.def_198 (not .def_197))) (let ((.def_199 (and .def_198 .def_185))) (let ((.def_200 (not .def_199))) (let ((.def_201 (not .def_185))) (let ((.def_202 (and .def_201 .def_197))) (let ((.def_203 (not .def_202))) (let ((.def_204 (and .def_203 .def_200))) (let ((.def_205 (not .def_204))) (let ((.def_206 (and .def_205 .def_174))) (let ((.def_207 (not .def_206))) (let ((.def_208 (and .def_204 .def_173))) (let ((.def_209 (not .def_208))) (let ((.def_210 (and .def_209 .def_207))) (let ((.def_211 (not .def_210))) (let ((.def_212 (and .def_1 .def_211))) (let ((.def_213 (not G478))) (let ((.def_214 (and .def_213 .def_212))) (let ((.def_215 (not .def_214))) (let ((.def_216 (not .def_212))) (let ((.def_217 (and .def_216 G478))) (let ((.def_218 (not .def_217))) (let ((.def_219 (and .def_218 .def_215))) (let ((.def_220 (and .def_219 .def_172))) (let ((.def_221 (and G128 .def_6))) (let ((.def_222 (not .def_221))) (let ((.def_223 (and G119 .def_66))) (let ((.def_224 (not .def_223))) (let ((.def_225 (and .def_224 .def_222))) (let ((.def_226 (not .def_225))) (let ((.def_227 (and .def_226 G110))) (let ((.def_228 (not .def_227))) (let ((.def_229 (and .def_41 .def_225))) (let ((.def_230 (not .def_229))) (let ((.def_231 (and .def_230 .def_228))) (let ((.def_232 (and .def_117 .def_59))) (let ((.def_233 (not .def_232))) (let ((.def_234 (and .def_122 .def_233))) (let ((.def_235 (not .def_234))) (let ((.def_236 (and .def_235 .def_231))) (let ((.def_237 (not .def_236))) (let ((.def_238 (not .def_231))) (let ((.def_239 (and .def_234 .def_238))) (let ((.def_240 (not .def_239))) (let ((.def_241 (and .def_240 .def_237))) (let ((.def_242 (not .def_241))) (let ((.def_243 (and G234 G221 .def_76))) (let ((.def_244 (and G137 .def_243))) (let ((.def_245 (not .def_244))) (let ((.def_246 (not G137))) (let ((.def_247 (not .def_243))) (let ((.def_248 (and .def_247 .def_246))) (let ((.def_249 (not .def_248))) (let ((.def_250 (and .def_249 .def_245))) (let ((.def_251 (not .def_250))) (let ((.def_252 (and .def_251 .def_242))) (let ((.def_253 (not .def_252))) (let ((.def_254 (and .def_250 .def_241))) (let ((.def_255 (not .def_254))) (let ((.def_256 (and .def_255 .def_253))) (let ((.def_257 (not .def_256))) (let ((.def_258 (and .def_257 .def_1))) (let ((.def_259 (not .def_258))) (let ((.def_260 (and .def_1 G234))) (let ((.def_261 (not .def_260))) (let ((.def_262 (and .def_261 G217))) (let ((.def_263 (and .def_262 .def_259))) (let ((.def_264 (not .def_263))) (let ((.def_265 (not .def_262))) (let ((.def_266 (and .def_265 .def_258))) (let ((.def_267 (not .def_266))) (let ((.def_268 (and .def_267 .def_264))) (let ((.def_269 (not .def_268))) (let ((.def_270 (and .def_76 .def_0 G210))) (let ((.def_271 (and G101 .def_270))) (let ((.def_272 (not .def_271))) (let ((.def_273 (not .def_270))) (let ((.def_274 (and .def_20 .def_273))) (let ((.def_275 (not .def_274))) (let ((.def_276 (and .def_275 .def_272))) (let ((.def_277 (not .def_276))) (let ((.def_278 (and .def_9 G119))) (let ((.def_279 (not .def_278))) (let ((.def_280 (and .def_8 .def_279))) (let ((.def_281 (and .def_16 .def_280))) (let ((.def_282 (not .def_281))) (let ((.def_283 (not .def_280))) (let ((.def_284 (and .def_283 G113))) (let ((.def_285 (not .def_284))) (let ((.def_286 (and .def_285 .def_282))) (let ((.def_287 (and .def_246 G134))) (let ((.def_288 (not .def_287))) (let ((.def_289 (and .def_186 G137))) (let ((.def_290 (not .def_289))) (let ((.def_291 (and .def_290 .def_288))) (let ((.def_292 (and .def_124 .def_291))) (let ((.def_293 (not .def_292))) (let ((.def_294 (not .def_291))) (let ((.def_295 (and .def_294 G131))) (let ((.def_296 (not .def_295))) (let ((.def_297 (and .def_296 .def_293))) (let ((.def_298 (and .def_69 .def_297))) (let ((.def_299 (not .def_298))) (let ((.def_300 (not .def_297))) (let ((.def_301 (and .def_300 .def_72))) (let ((.def_302 (not .def_301))) (let ((.def_303 (and .def_302 .def_299))) (let ((.def_304 (and .def_303 .def_286))) (let ((.def_305 (not .def_304))) (let ((.def_306 (not .def_286))) (let ((.def_307 (not .def_303))) (let ((.def_308 (and .def_307 .def_306))) (let ((.def_309 (not .def_308))) (let ((.def_310 (and .def_309 .def_305))) (let ((.def_311 (and .def_310 .def_277))) (let ((.def_312 (not .def_311))) (let ((.def_313 (not .def_310))) (let ((.def_314 (and .def_276 .def_313))) (let ((.def_315 (not .def_314))) (let ((.def_316 (and .def_315 .def_312))) (let ((.def_317 (not .def_316))) (let ((.def_318 (and .def_1 .def_317))) (let ((.def_319 (not .def_318))) (let ((.def_320 (and G472 .def_319))) (let ((.def_321 (not .def_320))) (let ((.def_322 (not G472))) (let ((.def_323 (and .def_322 .def_318))) (let ((.def_324 (not .def_323))) (let ((.def_325 (and .def_324 .def_321))) (let ((.def_326 (not .def_325))) (let ((.def_327 (and .def_326 .def_269))) (let ((.def_328 (and .def_114 G110))) (let ((.def_329 (not .def_328))) (let ((.def_330 (and G140 .def_41))) (let ((.def_331 (not .def_330))) (let ((.def_332 (and .def_331 .def_329))) (let ((.def_333 (and .def_76 G227))) (let ((.def_334 (and .def_333 .def_332))) (let ((.def_335 (not .def_334))) (let ((.def_336 (not .def_332))) (let ((.def_337 (not .def_333))) (let ((.def_338 (and .def_337 .def_336))) (let ((.def_339 (not .def_338))) (let ((.def_340 (and .def_339 .def_335))) (let ((.def_341 (and G104 .def_21))) (let ((.def_342 (not .def_341))) (let ((.def_343 (and .def_24 G107))) (let ((.def_344 (not .def_343))) (let ((.def_345 (and .def_344 .def_342))) (let ((.def_346 (and .def_345 .def_20))) (let ((.def_347 (not .def_346))) (let ((.def_348 (not .def_345))) (let ((.def_349 (and .def_348 G101))) (let ((.def_350 (not .def_349))) (let ((.def_351 (and .def_350 .def_347))) (let ((.def_352 (not .def_351))) (let ((.def_353 (and G146 .def_56))) (let ((.def_354 (not .def_353))) (let ((.def_355 (and .def_354 .def_61))) (let ((.def_356 (and .def_66 .def_355))) (let ((.def_357 (not .def_356))) (let ((.def_358 (not .def_355))) (let ((.def_359 (and G128 .def_358))) (let ((.def_360 (not .def_359))) (let ((.def_361 (and .def_360 .def_357))) (let ((.def_362 (not .def_361))) (let ((.def_363 (and .def_362 .def_352))) (let ((.def_364 (not .def_363))) (let ((.def_365 (and .def_351 .def_361))) (let ((.def_366 (not .def_365))) (let ((.def_367 (and .def_366 .def_364))) (let ((.def_368 (not .def_367))) (let ((.def_369 (and .def_300 .def_368))) (let ((.def_370 (not .def_369))) (let ((.def_371 (and .def_297 .def_367))) (let ((.def_372 (not .def_371))) (let ((.def_373 (and .def_372 .def_370))) (let ((.def_374 (and .def_373 .def_340))) (let ((.def_375 (not .def_374))) (let ((.def_376 (not .def_340))) (let ((.def_377 (not .def_373))) (let ((.def_378 (and .def_377 .def_376))) (let ((.def_379 (not .def_378))) (let ((.def_380 (and .def_379 .def_375))) (let ((.def_381 (not .def_380))) (let ((.def_382 (and .def_1 .def_381))) (let ((.def_383 (not .def_382))) (let ((.def_384 (and .def_383 G469))) (let ((.def_385 (not .def_384))) (let ((.def_386 (not G469))) (let ((.def_387 (and .def_386 .def_382))) (let ((.def_388 (not .def_387))) (let ((.def_389 (and .def_388 .def_385))) (let ((.def_390 (not .def_389))) (let ((.def_391 (and G221 .def_261))) (let ((.def_392 (not .def_391))) (let ((.def_393 (and .def_392 .def_390))) (let ((.def_394 (and .def_393 .def_327 .def_220 .def_111 .def_102))) (let ((.def_395 (not .def_394))) (let ((.def_396 (and .def_395 G146))) (let ((.def_397 (not .def_396))) (let ((.def_398 (and .def_394 .def_59))) (let ((.def_399 (not .def_398))) (let ((.def_400 (and .def_399 .def_397))) (let ((.def_401 (and .def_219 .def_171))) (let ((.def_402 (and .def_392 .def_389))) (let ((.def_403 (not G898))) (let ((.def_404 (and .def_403 G953 .def_104 G902))) (let ((.def_405 (not .def_404))) (let ((.def_406 (and .def_106 .def_405))) (let ((.def_407 (not .def_406))) (let ((.def_408 (and .def_327 .def_407 .def_102 .def_402 .def_401))) (let ((.def_409 (and .def_6 .def_408))) (let ((.def_410 (not .def_409))) (let ((.def_411 (not .def_408))) (let ((.def_412 (and .def_411 G119))) (let ((.def_413 (not .def_412))) (let ((.def_414 (and .def_413 .def_410))) (let ((.def_415 (not .def_414))) (let ((.def_416 (and .def_325 .def_269))) (let ((.def_417 (and .def_401 .def_416 .def_407 .def_102 .def_393))) (let ((.def_418 (not .def_417))) (let ((.def_419 (and .def_418 G110))) (let ((.def_420 (not .def_419))) (let ((.def_421 (and .def_417 .def_41))) (let ((.def_422 (not .def_421))) (let ((.def_423 (and .def_422 .def_420))) (let ((.def_424 (not .def_219))) (let ((.def_425 (and .def_171 .def_424))) (let ((.def_426 (and .def_326 .def_268))) (let ((.def_427 (and .def_426 .def_425 .def_407 .def_102 .def_402))) (let ((.def_428 (and .def_427 .def_9))) (let ((.def_429 (not .def_428))) (let ((.def_430 (not .def_427))) (let ((.def_431 (and G116 .def_430))) (let ((.def_432 (not .def_431))) (let ((.def_433 (and .def_432 .def_429))) (let ((.def_434 (and G224 G898))) (let ((.def_435 (not .def_434))) (let ((.def_436 (and .def_435 G953))) (let ((.def_437 (and .def_36 .def_37))) (let ((.def_438 (not .def_437))) (let ((.def_439 (and .def_438 .def_35))) (let ((.def_440 (and .def_47 .def_439))) (let ((.def_441 (not .def_440))) (let ((.def_442 (not .def_439))) (let ((.def_443 (and .def_442 .def_51))) (let ((.def_444 (not .def_443))) (let ((.def_445 (and .def_444 .def_441))) (let ((.def_446 (and .def_403 G953))) (let ((.def_447 (not .def_446))) (let ((.def_448 (and .def_447 .def_445))) (let ((.def_449 (not .def_448))) (let ((.def_450 (and .def_220 .def_426 .def_407 .def_102 .def_402))) (let ((.def_451 (not .def_450))) (let ((.def_452 (and .def_401 .def_426 .def_407 .def_102 .def_393))) (let ((.def_453 (not .def_452))) (let ((.def_454 (and .def_325 .def_268))) (let ((.def_455 (and .def_454 .def_425 .def_407 .def_102 .def_393))) (let ((.def_456 (not .def_455))) (let ((.def_457 (and .def_454 .def_220 .def_407 .def_102 .def_393))) (let ((.def_458 (not .def_457))) (let ((.def_459 (and .def_424 .def_172))) (let ((.def_460 (and .def_454 .def_459 .def_407 .def_102 .def_402))) (let ((.def_461 (not .def_460))) (let ((.def_462 (and .def_430 .def_461 .def_458 .def_418 .def_456 .def_453 .def_411 .def_451))) (let ((.def_463 (not .def_462))) (let ((.def_464 (and .def_76 .def_463))) (let ((.def_465 (and .def_464 .def_449))) (let ((.def_466 (not .def_465))) (let ((.def_467 (not .def_464))) (let ((.def_468 (and .def_467 .def_448))) (let ((.def_469 (not .def_468))) (let ((.def_470 (and .def_469 .def_466))) (let ((.def_471 (and .def_470 .def_436))) (let ((.def_472 (not .def_471))) (let ((.def_473 (not .def_436))) (let ((.def_474 (not .def_470))) (let ((.def_475 (and .def_474 .def_473))) (let ((.def_476 (not .def_475))) (let ((.def_477 (and .def_476 .def_472))) (let ((.def_478 (and G900 G227))) (let ((.def_479 (not .def_478))) (let ((.def_480 (and G953 .def_479))) (let ((.def_481 (and G125 .def_114))) (let ((.def_482 (not .def_481))) (let ((.def_483 (and .def_113 .def_482))) (let ((.def_484 (and G137 .def_186))) (let ((.def_485 (not .def_484))) (let ((.def_486 (and .def_485 .def_288))) (let ((.def_487 (not .def_486))) (let ((.def_488 (and .def_487 G131))) (let ((.def_489 (not .def_488))) (let ((.def_490 (and .def_124 .def_486))) (let ((.def_491 (not .def_490))) (let ((.def_492 (and .def_491 .def_489))) (let ((.def_493 (and .def_492 .def_361))) (let ((.def_494 (not .def_493))) (let ((.def_495 (not .def_492))) (let ((.def_496 (and .def_362 .def_495))) (let ((.def_497 (not .def_496))) (let ((.def_498 (and .def_497 .def_494))) (let ((.def_499 (and .def_498 .def_483))) (let ((.def_500 (not .def_499))) (let ((.def_501 (not .def_483))) (let ((.def_502 (not .def_498))) (let ((.def_503 (and .def_502 .def_501))) (let ((.def_504 (not .def_503))) (let ((.def_505 (and .def_504 .def_500))) (let ((.def_506 (and G953 .def_107))) (let ((.def_507 (not .def_506))) (let ((.def_508 (and .def_507 .def_505))) (let ((.def_509 (not .def_508))) (let ((.def_510 (and .def_5 .def_100))) (let ((.def_511 (and .def_393 .def_426 .def_111 .def_425 .def_510))) (let ((.def_512 (not .def_511))) (let ((.def_513 (and .def_393 .def_327 .def_111 .def_510 .def_401))) (let ((.def_514 (not .def_513))) (let ((.def_515 (and .def_327 .def_111 .def_425 .def_102 .def_393))) (let ((.def_516 (not .def_515))) (let ((.def_517 (and .def_393 .def_220 .def_426 .def_111 .def_510))) (let ((.def_518 (not .def_517))) (let ((.def_519 (and .def_220 .def_111 .def_416 .def_102 .def_402))) (let ((.def_520 (not .def_519))) (let ((.def_521 (and .def_393 .def_220 .def_111 .def_416 .def_510))) (let ((.def_522 (not .def_521))) (let ((.def_523 (and .def_393 .def_459 .def_426 .def_111 .def_102))) (let ((.def_524 (not .def_523))) (let ((.def_525 (and .def_524 .def_522 .def_520 .def_518 .def_395 .def_516 .def_514 .def_512))) (let ((.def_526 (not .def_525))) (let ((.def_527 (and .def_526 .def_76))) (let ((.def_528 (and .def_527 .def_509))) (let ((.def_529 (not .def_528))) (let ((.def_530 (not .def_527))) (let ((.def_531 (and .def_530 .def_508))) (let ((.def_532 (not .def_531))) (let ((.def_533 (and .def_532 .def_529))) (let ((.def_534 (and .def_533 .def_480))) (let ((.def_535 (not .def_534))) (let ((.def_536 (not .def_480))) (let ((.def_537 (not .def_533))) (let ((.def_538 (and .def_537 .def_536))) (let ((.def_539 (not .def_538))) (let ((.def_540 (and .def_539 .def_535))) (let ((.def_541 (not .def_540))) (let ((.def_542 (and .def_114 .def_521))) (let ((.def_543 (not .def_542))) (let ((.def_544 (and G140 .def_522))) (let ((.def_545 (not .def_544))) (let ((.def_546 (and .def_545 .def_543))) (let ((.def_547 (not .def_546))) (let ((.def_548 (and .def_455 .def_21))) (let ((.def_549 (not .def_548))) (let ((.def_550 (and G107 .def_456))) (let ((.def_551 (not .def_550))) (let ((.def_552 (and .def_551 .def_549))) (let ((.def_553 (not .def_552))) (let ((.def_554 (and .def_186 .def_511))) (let ((.def_555 (not .def_554))) (let ((.def_556 (and G134 .def_512))) (let ((.def_557 (not .def_556))) (let ((.def_558 (and .def_557 .def_555))) (let ((.def_559 (not .def_558))) (let ((.def_560 (not G952))) (let ((.def_561 (and .def_560 G953))) (let ((.def_562 (not .def_561))) (let ((.def_563 (and .def_525 .def_462))) (let ((.def_564 (not .def_563))) (let ((.def_565 (and .def_564 G902 .def_262))) (let ((.def_566 (and .def_565 .def_256))) (let ((.def_567 (not .def_566))) (let ((.def_568 (not .def_565))) (let ((.def_569 (and .def_568 .def_257))) (let ((.def_570 (not .def_569))) (let ((.def_571 (and .def_570 .def_567))) (let ((.def_572 (not .def_571))) (let ((.def_573 (and .def_572 .def_562))) (let ((.def_574 (not .def_573))) (let ((.def_575 (and G125 .def_520))) (let ((.def_576 (not .def_575))) (let ((.def_577 (and .def_55 .def_519))) (let ((.def_578 (not .def_577))) (let ((.def_579 (and .def_578 .def_576))) (let ((.def_580 (not .def_579))) (let ((.def_581 (and .def_453 G101))) (let ((.def_582 (not .def_581))) (let ((.def_583 (and .def_20 .def_452))) (let ((.def_584 (not .def_583))) (let ((.def_585 (and .def_584 .def_582))) (let ((.def_586 (and .def_564 G902 G475))) (let ((.def_587 (and .def_162 .def_586))) (let ((.def_588 (not .def_587))) (let ((.def_589 (not .def_586))) (let ((.def_590 (and .def_589 .def_163))) (let ((.def_591 (not .def_590))) (let ((.def_592 (and .def_591 .def_588))) (let ((.def_593 (not .def_592))) (let ((.def_594 (and .def_562 .def_593))) (let ((.def_595 (and .def_16 .def_450))) (let ((.def_596 (not .def_595))) (let ((.def_597 (and G113 .def_451))) (let ((.def_598 (not .def_597))) (let ((.def_599 (and .def_598 .def_596))) (let ((.def_600 (not .def_599))) (let ((.def_601 (and .def_66 .def_515))) (let ((.def_602 (not .def_601))) (let ((.def_603 (and .def_516 G128))) (let ((.def_604 (not .def_603))) (let ((.def_605 (and .def_604 .def_602))) (let ((.def_606 (not .def_605))) (let ((.def_607 (and .def_96 .def_99))) (let ((.def_608 (and .def_385 .def_388))) (let ((.def_609 (and G475 .def_168))) (let ((.def_610 (not .def_609))) (let ((.def_611 (and .def_167 .def_610))) (let ((.def_612 (and .def_212 .def_213))) (let ((.def_613 (not .def_612))) (let ((.def_614 (and .def_613 .def_218))) (let ((.def_615 (and .def_264 .def_267))) (let ((.def_616 (and .def_318 .def_322))) (let ((.def_617 (not .def_616))) (let ((.def_618 (and .def_319 G472))) (let ((.def_619 (not .def_618))) (let ((.def_620 (and .def_619 .def_617))) (let ((.def_621 (and .def_620 .def_5 .def_615 .def_614 .def_611 .def_392 .def_608 .def_607))) (let ((.def_622 (not .def_621))) (let ((.def_623 (and .def_76 .def_560 .def_622))) (let ((.def_624 (and .def_105 .def_393 .def_454 .def_510 .def_401))) (let ((.def_625 (not .def_624))) (let ((.def_626 (and .def_105 .def_426 .def_510 .def_401 .def_402))) (let ((.def_627 (not .def_626))) (let ((.def_628 (and .def_105 .def_454 .def_220 .def_510 .def_402))) (let ((.def_629 (not .def_628))) (let ((.def_630 (and .def_105 .def_454 .def_425 .def_510 .def_402))) (let ((.def_631 (not .def_630))) (let ((.def_632 (and .def_105 .def_454 .def_102 .def_402 .def_401))) (let ((.def_633 (not .def_632))) (let ((.def_634 (and .def_4 .def_100))) (let ((.def_635 (and .def_105 .def_454 .def_402 .def_401 .def_634))) (let ((.def_636 (not .def_635))) (let ((.def_637 (and .def_389 .def_391))) (let ((.def_638 (and .def_105 .def_454 .def_637 .def_510 .def_401))) (let ((.def_639 (not .def_638))) (let ((.def_640 (and .def_105 .def_416 .def_510 .def_401 .def_402))) (let ((.def_641 (not .def_640))) (let ((.def_642 (and .def_641 .def_639 .def_636 .def_633 .def_631 .def_629 .def_627 .def_625))) (let ((.def_643 (and .def_525 .def_642 .def_462))) (let ((.def_644 (and .def_76 .def_643 .def_622 G952))) (let ((.def_645 (or .def_644 .def_623))) (let ((.def_646 (and G104 .def_458))) (let ((.def_647 (not .def_646))) (let ((.def_648 (and .def_24 .def_457))) (let ((.def_649 (not .def_648))) (let ((.def_650 (and .def_649 .def_647))) (let ((.def_651 (not .def_650))) (let ((.def_652 (and .def_273 .def_20))) (let ((.def_653 (not .def_652))) (let ((.def_654 (and .def_270 G101))) (let ((.def_655 (not .def_654))) (let ((.def_656 (and .def_655 .def_653))) (let ((.def_657 (and .def_564 G472 G902))) (let ((.def_658 (and .def_72 .def_300))) (let ((.def_659 (not .def_658))) (let ((.def_660 (and .def_659 .def_299))) (let ((.def_661 (and .def_660 .def_286))) (let ((.def_662 (not .def_661))) (let ((.def_663 (not .def_660))) (let ((.def_664 (and .def_306 .def_663))) (let ((.def_665 (not .def_664))) (let ((.def_666 (and .def_665 .def_662))) (let ((.def_667 (and .def_666 .def_657))) (let ((.def_668 (not .def_667))) (let ((.def_669 (not .def_657))) (let ((.def_670 (not .def_666))) (let ((.def_671 (and .def_670 .def_669))) (let ((.def_672 (not .def_671))) (let ((.def_673 (and .def_672 .def_668))) (let ((.def_674 (not .def_673))) (let ((.def_675 (and .def_674 .def_656))) (let ((.def_676 (not .def_675))) (let ((.def_677 (not .def_656))) (let ((.def_678 (and .def_673 .def_677))) (let ((.def_679 (not .def_678))) (let ((.def_680 (and .def_679 .def_676))) (let ((.def_681 (not .def_680))) (let ((.def_682 (and .def_681 .def_562))) (let ((.def_683 (and G125 .def_72))) (let ((.def_684 (not .def_683))) (let ((.def_685 (and .def_684 .def_71))) (let ((.def_686 (and .def_77 .def_685))) (let ((.def_687 (not .def_686))) (let ((.def_688 (not .def_685))) (let ((.def_689 (and .def_688 .def_80))) (let ((.def_690 (not .def_689))) (let ((.def_691 (and .def_690 .def_687))) (let ((.def_692 (and .def_87 .def_691))) (let ((.def_693 (not .def_692))) (let ((.def_694 (not .def_691))) (let ((.def_695 (and .def_694 .def_54))) (let ((.def_696 (not .def_695))) (let ((.def_697 (and .def_696 .def_693))) (let ((.def_698 (and .def_564 G902 .def_94))) (let ((.def_699 (and .def_698 .def_697))) (let ((.def_700 (not .def_699))) (let ((.def_701 (not .def_698))) (let ((.def_702 (not .def_697))) (let ((.def_703 (and .def_702 .def_701))) (let ((.def_704 (not .def_703))) (let ((.def_705 (and .def_704 .def_700))) (let ((.def_706 (not .def_705))) (let ((.def_707 (and .def_706 .def_562))) (let ((.def_708 (not .def_707))) (let ((.def_709 (and .def_44 .def_460))) (let ((.def_710 (not .def_709))) (let ((.def_711 (and .def_461 G122))) (let ((.def_712 (not .def_711))) (let ((.def_713 (and .def_712 .def_710))) (let ((.def_714 (and .def_513 .def_246))) (let ((.def_715 (not .def_714))) (let ((.def_716 (and G137 .def_514))) (let ((.def_717 (not .def_716))) (let ((.def_718 (and .def_717 .def_715))) (let ((.def_719 (not .def_718))) (let ((.def_720 (and .def_523 .def_56))) (let ((.def_721 (not .def_720))) (let ((.def_722 (and G143 .def_524))) (let ((.def_723 (not .def_722))) (let ((.def_724 (and .def_723 .def_721))) (let ((.def_725 (and .def_564 G902 G478))) (let ((.def_726 (and .def_210 .def_725))) (let ((.def_727 (not .def_726))) (let ((.def_728 (not .def_725))) (let ((.def_729 (and .def_211 .def_728))) (let ((.def_730 (not .def_729))) (let ((.def_731 (and .def_730 .def_727))) (let ((.def_732 (not .def_731))) (let ((.def_733 (and .def_562 .def_732))) (let ((.def_734 (and .def_517 .def_124))) (let ((.def_735 (not .def_734))) (let ((.def_736 (and .def_518 G131))) (let ((.def_737 (not .def_736))) (let ((.def_738 (and .def_737 .def_735))) (let ((.def_739 (and .def_41 G140))) (let ((.def_740 (not .def_739))) (let ((.def_741 (and .def_740 .def_329))) (let ((.def_742 (and .def_741 .def_333))) (let ((.def_743 (not .def_742))) (let ((.def_744 (not .def_741))) (let ((.def_745 (and .def_744 .def_337))) (let ((.def_746 (not .def_745))) (let ((.def_747 (and .def_746 .def_743))) (let ((.def_748 (and .def_361 .def_351))) (let ((.def_749 (not .def_748))) (let ((.def_750 (and .def_352 .def_362))) (let ((.def_751 (not .def_750))) (let ((.def_752 (and .def_751 .def_749))) (let ((.def_753 (not .def_752))) (let ((.def_754 (and .def_753 .def_300))) (let ((.def_755 (not .def_754))) (let ((.def_756 (and .def_752 .def_297))) (let ((.def_757 (not .def_756))) (let ((.def_758 (and .def_757 .def_755))) (let ((.def_759 (and .def_758 .def_747))) (let ((.def_760 (not .def_759))) (let ((.def_761 (not .def_747))) (let ((.def_762 (not .def_758))) (let ((.def_763 (and .def_762 .def_761))) (let ((.def_764 (not .def_763))) (let ((.def_765 (and .def_764 .def_760))) (let ((.def_766 (and .def_564 G902 G469))) (let ((.def_767 (and .def_766 .def_765))) (let ((.def_768 (not .def_767))) (let ((.def_769 (not .def_765))) (let ((.def_770 (not .def_766))) (let ((.def_771 (and .def_770 .def_769))) (let ((.def_772 (not .def_771))) (let ((.def_773 (and .def_772 .def_768))) (let ((.def_774 (not .def_773))) (let ((.def_775 (and .def_774 .def_562))) (let ((.def_776 (and .def_775 .def_738 .def_733 .def_724 .def_719 .def_713 .def_708 .def_682 .def_651 .def_645 .def_606 .def_600 .def_594 .def_585 .def_580 .def_574 .def_559 .def_553 .def_547 .def_541 .def_477 .def_433 .def_423 .def_415 .def_400))) .def_776))))))))))))))))))))))))))))))))))))))))))))))))))))))))))))))))))))))))))))))))))))))))))))))))))))))))))))))))))))))))))))))))))))))))))))))))))))))))))))))))))))))))))))))))))))))))))))))))))))))))))))))))))))))))))))))))))))))))))))))))))))))))))))))))))))))))))))))))))))))))))))))))))))))))))))))))))))))))))))))))))))))))))))))))))))))))))))))))))))))))))))))))))))))))))))))))))))))))))))))))))))))))))))))))))))))))))))))))))))))))))))))))))))))))))))))))))))))))))))))))))))))))))))))))))))))))))))))))))))))))))))))))))))))))))))))))))))))))))))))))))))))))))))))))))))))))))))))))))))))))))))))))))))))))))))))))))))))))))))))))))))))))))))))))))))))))))))))))))))))))))))))))))))))))))))))))))))))))))))))))))))))))))))))))))))))))))))))))))))))))))))))))))))))))))
(check-sat)
